solving instance uflp nldep gunluk ../../../../../instances/uflp/gunluk/gunluk-30-60-3.txt sinabc2
Set parameter TokenServer to value "licences.gerad.lan"
Set parameter MIPGap to value 1e-06
Set parameter FuncPieceError to value 1e-06
Set parameter Threads to value 1
Set parameter FuncPieces to value -2
Set parameter TimeLimit to value 3600
Gurobi Optimizer version 12.0.2 build v12.0.2rc0 (linux64 - "AlmaLinux 9.6 (Sage Margay)")

CPU model: Intel(R) Xeon(R) Gold 6258R CPU @ 2.70GHz, instruction set [SSE2|AVX|AVX2|AVX512]
Thread count: 56 physical cores, 56 logical processors, using up to 1 threads

Non-default parameters:
TimeLimit  3600
MIPGap  1e-06
Threads  1
FuncPieces  -2
FuncPieceError  1e-06

Optimize a model with 1980 rows, 2010 columns and 7440 nonzeros
Model fingerprint: 0x19b7b002
Model has 60 function constraints treated as nonlinear
  30 POW, 30 SIN
Variable types: 1980 continuous, 30 integer (30 binary)
Coefficient statistics:
  Matrix range     [2e-03, 1e+02]
  Objective range  [7e-01, 6e+01]
  Bounds range     [1e+00, 1e+10]
  RHS range        [1e+00, 1e+00]
Warning: Model contains large bounds
         Consider reformulating model or setting NumericFocus parameter
         to avoid numerical issues.
Presolve removed 1860 rows and 120 columns
Presolve time: 0.00s
Presolved: 360 rows, 1891 columns, 4200 nonzeros
Presolved model has 30 quadratic objective terms
Presolved model has 30 nonlinear constraint(s)

Solving non-convex MINLP

Variable types: 1891 continuous, 0 integer (0 binary)
Found heuristic solution: objective 280.9444943

Root relaxation: objective 2.669269e+02, 269 iterations, 0.00 seconds (0.00 work units)

    Nodes    |    Current Node    |     Objective Bounds      |     Work
 Expl Unexpl |  Obj  Depth IntInf | Incumbent    BestBd   Gap | It/Node Time

     0     0  266.92685    0   26  280.94449  266.92685  4.99%     -    0s
     0     0  267.66458    0   26  280.94449  267.66458  4.73%     -    0s
     0     0  267.84721    0   26  280.94449  267.84721  4.66%     -    0s
     0     0  267.89709    0   26  280.94449  267.89709  4.64%     -    0s
     0     0  267.91111    0   26  280.94449  267.91111  4.64%     -    0s
     0     2  268.92267    0   26  280.94449  268.92267  4.28%     -    0s
H   44    12                     280.9444917  279.72496  0.43%  38.3    0s
*  122    10              29     280.9444802  280.94356  0.00%  33.2    0s

Explored 127 nodes (4350 simplex iterations) in 0.44 seconds (0.18 work units)
Thread count was 1 (of 56 available processors)

Solution count 2: 280.944 280.944 

Optimal solution found (tolerance 1.00e-06)
Best objective 2.809444801779e+02, best bound 2.809443163932e+02, gap 0.0001%

User-callback calls 747, time in user-callback 0.00 sec
Generating Gunluk and Lee data file ../../../../../instances/uflp/gunluk/gunluk-30-60-3.txt
primal_bound = 280.9444801779289, dual_bound = 280.944316393199, gap = 5.829789920064025e-5, time = 0.45
OPTIMAL LOCATIONS:
y[1] = 1.0
y[2] = 1.0
y[3] = 1.0
y[4] = 1.0
y[5] = 1.0
y[6] = 1.0
y[7] = 1.0
y[8] = 1.0
y[9] = 1.0
y[10] = 1.0
y[11] = 1.0
y[12] = 1.0
y[13] = 1.0
y[14] = 1.0
y[15] = 1.0
y[16] = 1.0
y[17] = 1.0
y[18] = 1.0
y[19] = 1.0
y[20] = 1.0
y[21] = 1.0
y[22] = 1.0
y[23] = 1.0
y[24] = 1.0
y[25] = 1.0
y[26] = 1.0
y[27] = 1.0
y[28] = 1.0
y[29] = 1.0
y[30] = 1.0
OPTIMAL WAREHOUSING:
f[1] = 172.0
f[2] = 76.0
f[3] = 70.0
f[5] = 87.0
f[7] = 37.0
f[8] = 113.0
f[9] = 204.0
f[10] = 142.0
f[11] = 82.0
f[12] = 86.12777961481174
f[14] = 80.0
f[15] = 153.0
f[16] = 70.41241103607388
f[17] = 141.3946206694138
f[18] = 70.47879621135442
f[19] = 2.0
f[20] = 195.60582329452635
f[21] = 111.52441451893414
f[22] = 68.0
f[23] = 134.58758896392612
f[24] = 8.12658311923178
f[25] = 157.26639709066194
f[26] = 80.47558548106586
f[27] = 101.0
f[28] = 25.0
f[29] = 124.0
f[30] = 192.0
OPTIMAL WAREHOUSING COSTS:
nlobj[1] = 1.2882821168943106
nlobj[2] = 0.05459183121394096
nlobj[3] = 0.30503302785078323
nlobj[4] = 0.0
nlobj[5] = 0.0238231543102039
nlobj[6] = 0.0
nlobj[7] = 0.04323260291873552
nlobj[8] = 0.7414399562136057
nlobj[9] = 0.7395210579201766
nlobj[10] = 1.4183440510793086
nlobj[11] = 0.4816893806813883
nlobj[12] = 0.5487193098946527
nlobj[13] = 0.0
nlobj[14] = 0.1914860602237239
nlobj[15] = 1.2419309381595487
nlobj[16] = 0.339881009899681
nlobj[17] = 0.6875761044447565
nlobj[18] = 0.17221740523809462
nlobj[19] = 2.528230115808522e-5
nlobj[20] = 2.4580165836681838
nlobj[21] = 0.6637614854464683
nlobj[22] = 0.22229811319222725
nlobj[23] = 0.05669039523539766
nlobj[24] = 0.0029218185039913067
nlobj[25] = 1.9282715463843445
nlobj[26] = 0.22945378462108262
nlobj[27] = 0.03206190350065817
nlobj[28] = 0.02912417737100249
nlobj[29] = 1.0602425364957102
nlobj[30] = 0.7424124769513729
OPTIMAL ASSIGNMENTS:
x[1, 14] = 1.0
x[1, 25] = 1.0
x[1, 50] = 1.0
x[1, 51] = 1.0
x[2, 6] = 1.0
x[3, 18] = 1.0
x[5, 11] = 1.0
x[5, 32] = 1.0
x[5, 44] = 1.0
x[7, 40] = 1.0
x[7, 60] = 1.0
x[8, 10] = 1.0
x[8, 26] = 1.0
x[8, 57] = 1.0
x[9, 27] = 1.0
x[9, 41] = 1.0
x[9, 47] = 1.0
x[10, 22] = 1.0
x[10, 48] = 1.0
x[10, 55] = 1.0
x[11, 12] = 1.0
x[11, 31] = 1.0
x[12, 7] = 0.03127779614811743
x[12, 16] = 1.0
x[14, 5] = 1.0
x[14, 52] = 1.0
x[15, 15] = 1.0
x[15, 37] = 1.0
x[15, 39] = 1.0
x[16, 23] = 0.5882482207214775
x[16, 28] = 1.0
x[16, 43] = 1.0
x[17, 8] = 1.0
x[17, 30] = 0.48883455221630107
x[17, 42] = 1.0
x[18, 30] = 0.4290787496096406
x[18, 35] = 1.0
x[19, 19] = 1.0
x[20, 29] = 1.0
x[20, 45] = 0.6857836106491232
x[20, 59] = 1.0
x[21, 1] = 1.0
x[21, 20] = 1.0
x[21, 46] = 0.09349683403459763
x[22, 53] = 1.0
x[23, 23] = 0.41175177927852247
x[23, 24] = 1.0
x[23, 34] = 1.0
x[24, 30] = 0.08208669817405839
x[25, 7] = 0.9687222038518826
x[25, 36] = 1.0
x[25, 45] = 0.3142163893508768
x[26, 2] = 1.0
x[26, 17] = 1.0
x[26, 46] = 0.9065031659654024
x[27, 4] = 1.0
x[27, 21] = 1.0
x[28, 3] = 1.0
x[28, 33] = 1.0
x[29, 13] = 1.0
x[29, 58] = 1.0
x[30, 9] = 1.0
x[30, 38] = 1.0
x[30, 49] = 1.0
x[30, 54] = 1.0
x[30, 56] = 1.0
fixed costs = 1608.0
assignment costs = 265.24143206731435
warehousing costs = 15.703048110614507
total cost = 280.9444801779289
